NAME: usa115475
TYPE: TSP
COMMENT: 115,474 towns and cities in the United States
COMMENT: Created July 7, 2012, www.math.uwaterloo/tsp/data/usa/
DIMENSION: 10
EDGE_WEIGHT_TYPE: EUC_2D
NODE_COORD_SECTION
9875 36296.061300 119142.051700
111435 43183.884400 88988.442100
19678 33568.744800 82432.627200
33000 37001.176800 94740.503300
115231 44903.027000 107035.072300
42689 38081.787500 75437.420700
75752 40200.332200 83894.935200
40717 42169.540100 71620.343900
88000 33843.779900 79133.096300
85519 41856.736300 77598.319900
